RT is False
Default write of storage_offers_DA.csv just to have a file (but constraint should be inactive)
Reading model...
...model read.
creating competitive generators file...
...competitive generators recorded.
Loading data...
.. day-ahead data with real-time VRE data read.
Compiling instance...
...instance created.
Creating Offer Mitigation (model will solve as dispatch if TRUE)...
...storage offer mitigation file created
Converting model to MPEC...
...converted
NOTE: initial MIP solve with only storage competitive to get feasible solution
Solving...

Welcome to IBM(R) ILOG(R) CPLEX(R) Interactive Optimizer 12.9.0.0
  with Simplex, Mixed Integer & Barrier Optimizers
5725-A06 5725-A29 5724-Y48 5724-Y49 5724-Y54 5724-Y55 5655-Y21
Copyright IBM Corp. 1988, 2019.  All Rights Reserved.

Type 'help' for a list of available commands.
Type 'help' followed by a command name for more
information on commands.

CPLEX> Logfile 'cplex.log' closed.
Logfile 'C:\Users\llavin\Desktop\test826\logs\tmpm27emu3w.cplex.log' open.
CPLEX> New value for parallel optimization mode: -1
CPLEX> New value for mixed integer optimality gap tolerance: 0.01
CPLEX> New value for integrality tolerance: 1e-09
CPLEX> New value for feasibility tolerance: 0.001
CPLEX> New value for deterministic time limit in ticks: 75000
CPLEX> Problem 'C:\Users\llavin\Desktop\test826\logs\tmpml4aq7qh.pyomo.lp' read.
Read time = 0.23 sec. (14.73 ticks)
CPLEX> Problem name         : C:\Users\llavin\Desktop\test826\logs\tmpml4aq7qh.pyomo.lp
Objective sense      : Maximize
Variables            :   53805  [Nneg: 1,  Box: 22000,  Free: 4464,
                                 Binary: 27340]
Objective nonzeros   :    9028
Linear constraints   :  123205  [Less: 41346,  Greater: 59096,  Equal: 22763]
  Nonzeros           :  291752
  RHS nonzeros       :   67490

Variables            : Min LB: -5000.000        Max UB: 1000000.       
Objective nonzeros   : Min   : 0.08333333       Max   : 2500.000       
Linear constraints   :
  Nonzeros           : Min   : 0.08333333       Max   : 1000000.       
  RHS nonzeros       : Min   : 0.08333333       Max   : 1000000.       
CPLEX> CPXPARAM_Parallel                                -1
CPXPARAM_Simplex_Tolerances_Feasibility          0.001
CPXPARAM_DetTimeLimit                            75000
CPXPARAM_MIP_Tolerances_MIPGap                   0.01
CPXPARAM_MIP_Tolerances_Integrality              1.0000000000000001e-09
Tried aggregator 3 times.
MIP Presolve eliminated 88665 rows and 18989 columns.
MIP Presolve added 3375 rows and 0 columns.
MIP Presolve modified 24873 coefficients.
Aggregator did 12984 substitutions.
Reduced MIP has 24931 rows, 21276 columns, and 71093 nonzeros.
Reduced MIP has 8410 binaries, 0 generals, 0 SOSs, and 0 indicators.
Presolve time = 0.30 sec. (173.46 ticks)
Probing fixed 401 vars, tightened 2841 bounds.
Probing time = 1.25 sec. (891.53 ticks)
Tried aggregator 2 times.
MIP Presolve eliminated 903 rows and 804 columns.
MIP Presolve modified 2212 coefficients.
Aggregator did 38 substitutions.
Reduced MIP has 23990 rows, 20434 columns, and 68359 nonzeros.
Reduced MIP has 8009 binaries, 0 generals, 0 SOSs, and 0 indicators.
Presolve time = 0.11 sec. (68.53 ticks)
Probing fixed 0 vars, tightened 1 bounds.
Probing time = 0.05 sec. (20.36 ticks)
Clique table members: 6480.
MIP emphasis: balance optimality and feasibility.
MIP search method: dynamic search.
Parallel mode: opportunistic, using up to 32 threads.
Root relaxation solution time = 0.47 sec. (582.13 ticks)

        Nodes                                         Cuts/
   Node  Left     Objective  IInf  Best Integer    Best Bound    ItCnt     Gap

      0     0     3584.5702   638                   3584.5702     7280         
      0     0     3584.5070     3                    Cuts: 15     7285         
      0    24    infeasible                         3555.6382     7451         
Elapsed time = 7.11 sec. (4111.60 ticks, tree = 0.02 MB, solutions = 0)
*     5+   34                         3398.0403     3555.6382             4.64%
    491    44     3459.2164     2     3408.3276     3500.8112     8200    2.71%
   1192    88     3429.2461     2     3408.3276     3450.9876     9210    1.25%
   1528   611     3419.4222     2     3408.3276     3450.9876    12058    1.25%

Clique cuts applied:  1
Cover cuts applied:  1
Implied bound cuts applied:  13
Flow cuts applied:  7
Mixed integer rounding cuts applied:  1
Gomory fractional cuts applied:  1

Root node processing (before b&c):
  Real time             =    6.13 sec. (4101.45 ticks)
Parallel b&c, 32 threads:
  Real time             =    4.72 sec. (834.38 ticks)
  Sync time (average)   =    1.82 sec.
  Wait time (average)   =    0.00 sec.
                          ------------
Total (root+branch&cut) =   10.84 sec. (4935.84 ticks)

Solution pool: 4 solutions saved.

MIP - Integer optimal, tolerance (0.01/1e-06):  Objective =  3.4083276020e+03
Current MIP best bound =  3.4423303467e+03 (gap = 34.0027, 1.00%)
Solution time =   10.88 sec.  Iterations = 12238  Nodes = 1546 (617)
Deterministic time = 4935.99 ticks  (453.88 ticks/sec)

CPLEX> Incumbent solution written to file 'C:\Users\llavin\Desktop\test826\logs\tmpgdxjy51u.cplex.sol'.
CPLEX> NOTE: no warmstart specified for MIP iteration, default behavior is true
NOTE: resolving with all competitive generators using storage-only solution to warmstart
Solving...

Welcome to IBM(R) ILOG(R) CPLEX(R) Interactive Optimizer 12.9.0.0
  with Simplex, Mixed Integer & Barrier Optimizers
5725-A06 5725-A29 5724-Y48 5724-Y49 5724-Y54 5724-Y55 5655-Y21
Copyright IBM Corp. 1988, 2019.  All Rights Reserved.

Type 'help' for a list of available commands.
Type 'help' followed by a command name for more
information on commands.

CPLEX> Logfile 'cplex.log' closed.
Logfile 'C:\Users\llavin\Desktop\test826\logs\tmptbhlagf9.cplex.log' open.
CPLEX> New value for parallel optimization mode: -1
CPLEX> New value for mixed integer optimality gap tolerance: 0.01
CPLEX> New value for integrality tolerance: 1e-09
CPLEX> New value for feasibility tolerance: 0.001
CPLEX> New value for deterministic time limit in ticks: 75000
CPLEX> Problem 'C:\Users\llavin\Desktop\test826\logs\tmpc6wwli98.pyomo.lp' read.
Read time = 0.25 sec. (14.75 ticks)
CPLEX> MIP start file 'C:\Users\llavin\Desktop\test826\logs\tmpe_pcau2w.cplex.mst' read.
CPLEX> Problem name         : C:\Users\llavin\Desktop\test826\logs\tmpc6wwli98.pyomo.lp
Objective sense      : Maximize
Variables            :   54525  [Nneg: 1,  Box: 22720,  Free: 4464,
                                 Binary: 27340]
Objective nonzeros   :    9748
Linear constraints   :  123205  [Less: 41346,  Greater: 59096,  Equal: 22763]
  Nonzeros           :  291752
  RHS nonzeros       :   67490

Variables            : Min LB: -5000.000        Max UB: 1000000.       
Objective nonzeros   : Min   : 0.08333333       Max   : 2500.000       
Linear constraints   :
  Nonzeros           : Min   : 0.08333333       Max   : 1000000.       
  RHS nonzeros       : Min   : 0.08333333       Max   : 1000000.       
CPLEX> CPXPARAM_Parallel                                -1
CPXPARAM_Simplex_Tolerances_Feasibility          0.001
CPXPARAM_DetTimeLimit                            75000
CPXPARAM_MIP_Tolerances_MIPGap                   0.01
CPXPARAM_MIP_Tolerances_Integrality              1.0000000000000001e-09
Warning:  No solution found from 1 MIP starts.
Retaining values of one MIP start for possible repair.
Tried aggregator 3 times.
MIP Presolve eliminated 88665 rows and 19709 columns.
MIP Presolve added 3375 rows and 0 columns.
MIP Presolve modified 24873 coefficients.
Aggregator did 12984 substitutions.
Reduced MIP has 24931 rows, 21276 columns, and 71093 nonzeros.
Reduced MIP has 8410 binaries, 0 generals, 0 SOSs, and 0 indicators.
Presolve time = 0.30 sec. (173.82 ticks)
Probing fixed 401 vars, tightened 2841 bounds.
Probing time = 1.20 sec. (891.53 ticks)
Tried aggregator 2 times.
MIP Presolve eliminated 903 rows and 804 columns.
MIP Presolve modified 2212 coefficients.
Aggregator did 38 substitutions.
Reduced MIP has 23990 rows, 20434 columns, and 68359 nonzeros.
Reduced MIP has 8009 binaries, 0 generals, 0 SOSs, and 0 indicators.
Presolve time = 0.11 sec. (68.53 ticks)
Probing fixed 0 vars, tightened 1 bounds.
Probing time = 0.05 sec. (20.36 ticks)
Clique table members: 6480.
MIP emphasis: balance optimality and feasibility.
MIP search method: dynamic search.
Parallel mode: opportunistic, using up to 32 threads.
Root relaxation solution time = 0.48 sec. (582.13 ticks)

        Nodes                                         Cuts/
   Node  Left     Objective  IInf  Best Integer    Best Bound    ItCnt     Gap

      0     0     3584.5702   638                   3584.5702     7280         
      0     0     3584.5070     3                    Cuts: 15     7285         
Repair heuristic found nothing.
      0     5    infeasible                          Cuts: 10     7334         
Elapsed time = 8.11 sec. (4161.82 ticks, tree = 0.02 MB, solutions = 2)
*     9     8      integral     0     3398.0403     3580.9647     7376    5.38%
    498    90     3450.9876     3     3408.3276     3495.4956     8363    2.56%
   1009   150     3489.2208     2     3408.3276     3476.5337    10223    2.00%
   1292   274        cutoff           3408.3276     3476.5337    11926    2.00%
   1353   255        cutoff           3408.3276     3476.5337    12382    2.00%
   1369   243        cutoff           3408.3276     3476.5337    12447    2.00%
   1382   243     3476.5337     1     3408.3276     3476.5337    12454    2.00%
   1395   243        cutoff           3408.3276     3476.5337    12460    2.00%
   1405   242        cutoff           3408.3276     3476.5337    12466    2.00%
   1416   242        cutoff           3408.3276     3476.5337    12471    2.00%

Clique cuts applied:  1
Cover cuts applied:  2
Implied bound cuts applied:  13
Flow cuts applied:  7
Mixed integer rounding cuts applied:  1
Gomory fractional cuts applied:  1

Root node processing (before b&c):
  Real time             =    6.34 sec. (4146.31 ticks)
Parallel b&c, 32 threads:
  Real time             =    5.89 sec. (2759.83 ticks)
  Sync time (average)   =    3.10 sec.
  Wait time (average)   =    0.00 sec.
                          ------------
Total (root+branch&cut) =   12.23 sec. (6906.15 ticks)

Solution pool: 2 solutions saved.

MIP - Integer optimal, tolerance (0.01/1e-06):  Objective =  3.4083276020e+03
Current MIP best bound =  3.4423303467e+03 (gap = 34.0027, 1.00%)
Solution time =   12.23 sec.  Iterations = 12501  Nodes = 1438 (240)
Deterministic time = 6906.30 ticks  (564.52 ticks/sec)

CPLEX> Incumbent solution written to file 'C:\Users\llavin\Desktop\test826\logs\tmpsokt3f3s.cplex.sol'.
CPLEX> Exporting results... 
